122
125
331
435
130
1352
1629
100
249
92
391
378
99
272
59
3632
3213
110
128
1900
245
1051
140
111
563
1186
152
59
217
45
127
1649
518
123
294
194
748
185
291
136
173
191
2153
658
1906
243
89
1040
343
259
1055
178
2280
37
210
436
10013
627
468
56
332
596
848
218
103
402
234
854
118
68
55
691
262
540
364
228
1563
68
292
232
2624
617
269
384
198
112
581
793
165
10071
101
0
1034
182
163
202
70
1145
609
578
